% seed = 1674805

mint = 42;
% maxt = 96;

nActs = 22;
dur = [0,1,9,5,5,2,6,9,1,1,8,7,5,4,2,5,2,4,9,8,3,0];

nSkills = 4;
sreq = [| 0,0,0,0,
	| 0,1,1,3,
	| 0,3,3,0,
	| 3,0,0,3,
	| 3,0,2,0,
	| 0,0,2,1,
	| 0,2,2,1,
	| 0,0,3,1,
	| 2,0,3,3,
	| 2,3,1,3,
	| 2,1,1,3,
	| 0,1,3,0,
	| 1,1,3,2,
	| 0,0,3,3,
	| 1,3,1,2,
	| 3,0,1,0,
	| 0,1,2,0,
	| 2,0,3,1,
	| 2,3,3,3,
	| 0,3,0,3,
	| 2,2,2,2,
	| 0,0,0,0, |];

nResources = 20;
mastery = [| false,true,true,false,
	| false,true,false,true,
	| true,false,true,false,
	| false,false,true,false,
	| true,true,false,false,
	| false,true,true,true,
	| true,false,true,true,
	| true,true,false,true,
	| false,true,true,true,
	| true,false,false,false,
	| false,false,false,true,
	| true,false,true,false,
	| false,true,true,false,
	| false,false,true,false,
	| false,true,true,false,
	| true,true,true,false,
	| false,false,true,false,
	| false,true,true,true,
	| true,true,true,false,
	| true,true,true,false, |];

nPrecs = 37;
pred = [1,1,1,2,2,2,3,3,3,4,4,4,5,6,7,7,8,9,10,11,11,11,12,12,12,13,14,14,14,15,15,16,17,18,19,20,21];
succ = [2,3,4,13,5,16,9,11,8,6,7,14,21,12,13,8,10,19,12,18,21,15,17,20,16,20,17,19,16,17,19,21,18,20,22,22,22];

nUnrels = 104;
unpred = [2,2,2,2,2,2,2,2,2,2,2,2,2,2,3,3,3,3,3,3,4,4,4,4,5,5,5,5,5,5,5,5,5,5,5,5,5,5,5,6,6,6,6,6,6,6,6,6,7,7,7,7,7,8,8,8,8,8,8,9,9,9,9,9,9,9,9,9,9,9,10,10,10,10,10,11,11,11,11,12,12,12,12,13,13,13,13,13,13,13,14,15,15,16,16,16,16,17,17,18,18,19,19,20];
unsucc = [3,4,6,7,8,9,10,11,12,14,15,17,18,19,4,5,6,7,13,14,5,9,11,15,6,7,8,9,10,11,12,13,14,15,16,17,18,19,20,7,8,9,10,11,13,14,15,19,9,11,14,15,19,9,11,13,14,15,19,10,11,12,13,14,15,16,17,18,20,21,11,13,14,15,19,12,13,14,16,13,14,15,19,14,15,16,17,18,19,21,15,16,21,17,18,19,20,19,21,19,21,20,21,21];

USEFUL_RES = [{},
	{1,2,3,4,5,6,7,8,9,11,12,13,14,15,16,17,18,19,20},
	{1,2,3,4,5,6,7,8,9,12,13,14,15,16,17,18,19,20},
	{2,3,5,6,7,8,9,10,11,12,16,18,19,20},
	{1,3,4,5,6,7,8,9,10,12,13,14,15,16,17,18,19,20},
	{1,2,3,4,6,7,8,9,11,12,13,14,15,16,17,18,19,20},
	{1,2,3,4,5,6,7,8,9,11,12,13,14,15,16,17,18,19,20},
	{1,2,3,4,6,7,8,9,11,12,13,14,15,16,17,18,19,20},
	{1,2,3,4,5,6,7,8,9,10,11,12,13,14,15,16,17,18,19,20},
	{1,2,3,4,5,6,7,8,9,10,11,12,13,14,15,16,17,18,19,20},
	{1,2,3,4,5,6,7,8,9,10,11,12,13,14,15,16,17,18,19,20},
	{1,2,3,4,5,6,7,8,9,12,13,14,15,16,17,18,19,20},
	{1,2,3,4,5,6,7,8,9,10,11,12,13,14,15,16,17,18,19,20},
	{1,2,3,4,6,7,8,9,11,12,13,14,15,16,17,18,19,20},
	{1,2,3,4,5,6,7,8,9,10,11,12,13,14,15,16,17,18,19,20},
	{1,3,4,5,6,7,8,9,10,12,13,14,15,16,17,18,19,20},
	{1,2,3,4,5,6,7,8,9,12,13,14,15,16,17,18,19,20},
	{1,2,3,4,5,6,7,8,9,10,11,12,13,14,15,16,17,18,19,20},
	{1,2,3,4,5,6,7,8,9,10,11,12,13,14,15,16,17,18,19,20},
	{1,2,5,6,7,8,9,11,13,15,16,18,19,20},
	{1,2,3,4,5,6,7,8,9,10,11,12,13,14,15,16,17,18,19,20},
	{}];

POTENTIAL_ACT = [{2,3,5,6,7,8,9,10,11,12,13,14,15,16,17,18,19,20,21},
	{2,3,4,6,7,8,9,10,11,12,13,14,15,17,18,19,20,21},
	{2,3,4,5,6,7,8,9,10,11,12,13,14,15,16,17,18,19,21},
	{2,3,5,6,7,8,9,10,11,12,13,14,15,16,17,18,19,21},
	{2,3,4,5,7,9,10,11,12,13,15,16,17,18,19,20,21},
	{2,3,4,5,6,7,8,9,10,11,12,13,14,15,16,17,18,19,20,21},
	{2,3,4,5,6,7,8,9,10,11,12,13,14,15,16,17,18,19,20,21},
	{2,3,4,5,6,7,8,9,10,11,12,13,14,15,16,17,18,19,20,21},
	{2,3,4,5,6,7,8,9,10,11,12,13,14,15,16,17,18,19,20,21},
	{4,5,9,10,11,13,15,16,18,19,21},
	{2,4,6,7,8,9,10,11,13,14,15,18,19,20,21},
	{2,3,4,5,6,7,8,9,10,11,12,13,14,15,16,17,18,19,21},
	{2,3,5,6,7,8,9,10,11,12,13,14,15,16,17,18,19,20,21},
	{2,3,5,6,7,8,9,10,11,12,13,14,15,16,17,18,19,21},
	{2,3,5,6,7,8,9,10,11,12,13,14,15,16,17,18,19,20,21},
	{2,3,4,5,6,7,8,9,10,11,12,13,14,15,16,17,18,19,20,21},
	{2,3,5,6,7,8,9,10,11,12,13,14,15,16,17,18,19,21},
	{2,3,4,5,6,7,8,9,10,11,12,13,14,15,16,17,18,19,20,21},
	{2,3,4,5,6,7,8,9,10,11,12,13,14,15,16,17,18,19,20,21},
	{2,3,4,5,6,7,8,9,10,11,12,13,14,15,16,17,18,19,20,21}];
